
Gurobi 11.0.3 (linux64) logging started Wed Mar  4 15:27:41 2026

Set parameter LogFile to value "./log/train/CA_650_1000_0.7/CA_7.lp.log"
Set parameter TimeLimit to value 3600
Gurobi Optimizer version 11.0.3 build v11.0.3rc0 (linux64 - "Ubuntu 22.04.5 LTS")

CPU model: AMD Ryzen 9 9900X 12-Core Processor, instruction set [SSE2|AVX|AVX2|AVX512]
Thread count: 12 physical cores, 24 logical processors, using up to 24 threads

Optimize a model with 1041 rows, 650 columns and 3255 nonzeros
Model fingerprint: 0xeeab6f19
Variable types: 0 continuous, 650 integer (650 binary)
Coefficient statistics:
  Matrix range     [1e+00, 1e+00]
  Objective range  [1e+01, 1e+03]
  Bounds range     [1e+00, 1e+00]
  RHS range        [1e+00, 1e+00]
Found heuristic solution: objective 29809.363924
Presolve removed 269 rows and 78 columns
Presolve time: 0.01s
Presolved: 772 rows, 572 columns, 2915 nonzeros
Found heuristic solution: objective 34811.400478
Variable types: 0 continuous, 572 integer (572 binary)
Found heuristic solution: objective 36225.747830

Root relaxation: objective 4.300912e+04, 1462 iterations, 0.04 seconds (0.08 work units)

    Nodes    |    Current Node    |     Objective Bounds      |     Work
 Expl Unexpl |  Obj  Depth IntInf | Incumbent    BestBd   Gap | It/Node Time

     0     0 43009.1171    0  355 36225.7478 43009.1171  18.7%     -    0s
H    0     0                    38641.603647 43009.1171  11.3%     -    0s
H    0     0                    38750.277218 43009.1171  11.0%     -    0s
H    0     0                    39358.585109 43009.1171  9.28%     -    0s
     0     0 42906.9337    0  365 39358.5851 42906.9337  9.02%     -    0s
     0     0 42860.5411    0  369 39358.5851 42860.5411  8.90%     -    0s
     0     0 42770.2223    0  373 39358.5851 42770.2223  8.67%     -    0s
     0     0 42770.2223    0  373 39358.5851 42770.2223  8.67%     -    0s
     0     2 42770.2223    0  373 39358.5851 42770.2223  8.67%     -    0s
H   29    40                    39359.819275 42741.5753  8.59%   260    0s
H   30    40                    39649.144811 42741.5753  7.80%   256    0s
H   68    80                    39739.913758 42741.5753  7.55%   227    0s
H   80    99                    40074.201012 42741.5753  6.66%   219    0s
H  100   120                    40373.969636 42741.5753  5.86%   203    0s
H  119   143                    40456.056069 42741.5753  5.65%   194    0s
H  136   143                    40478.206246 42741.5753  5.59%   184    0s
H  143   159                    40538.074366 42741.5753  5.44%   180    0s
H  198   180                    40673.720189 42741.5753  5.08%   154    0s
H 1187   614                    40725.060420 42439.4535  4.21%   125    1s
H 2257  1037                    40760.039846 42002.3015  3.05%   119    1s
H 2539  1057                    40913.911081 41976.2868  2.60%   118    1s
  6193  1823 40951.9993   30  271 40913.9111 41800.3098  2.17%   117    5s
 24455  1828     cutoff   21      40913.9111 41246.5099  0.81%  96.8   10s

Cutting planes:
  Gomory: 2
  Clique: 14
  Zero half: 2
  RLT: 1

Explored 29310 nodes (2713988 simplex iterations) in 10.66 seconds (21.98 work units)
Thread count was 24 (of 24 available processors)

Solution count 10: 40913.9 40760 40725.1 ... 39739.9

Optimal solution found (tolerance 1.00e-04)
Best objective 4.091391108102e+04, best bound 4.091391108102e+04, gap 0.0000%

User-callback calls 60912, time in user-callback 0.04 sec

Gurobi 11.0.3 (linux64) logging started Wed Mar  4 15:35:50 2026

Set parameter LogFile to value "./log/train/CA_650_1000_0.7/CA_7.lp.log"
Set parameter TimeLimit to value 3600
Gurobi Optimizer version 11.0.3 build v11.0.3rc0 (linux64 - "Ubuntu 22.04.5 LTS")

CPU model: AMD Ryzen 9 9900X 12-Core Processor, instruction set [SSE2|AVX|AVX2|AVX512]
Thread count: 12 physical cores, 24 logical processors, using up to 24 threads

Optimize a model with 1041 rows, 650 columns and 3255 nonzeros
Model fingerprint: 0xeeab6f19
Variable types: 0 continuous, 650 integer (650 binary)
Coefficient statistics:
  Matrix range     [1e+00, 1e+00]
  Objective range  [1e+01, 1e+03]
  Bounds range     [1e+00, 1e+00]
  RHS range        [1e+00, 1e+00]
Found heuristic solution: objective 29809.363924
Presolve removed 269 rows and 78 columns
Presolve time: 0.01s
Presolved: 772 rows, 572 columns, 2915 nonzeros
Found heuristic solution: objective 34811.400478
Variable types: 0 continuous, 572 integer (572 binary)
Found heuristic solution: objective 36225.747830

Root relaxation: objective 4.300912e+04, 1462 iterations, 0.04 seconds (0.08 work units)

    Nodes    |    Current Node    |     Objective Bounds      |     Work
 Expl Unexpl |  Obj  Depth IntInf | Incumbent    BestBd   Gap | It/Node Time

     0     0 43009.1171    0  355 36225.7478 43009.1171  18.7%     -    0s
H    0     0                    38641.603647 43009.1171  11.3%     -    0s
H    0     0                    38750.277218 43009.1171  11.0%     -    0s
H    0     0                    39358.585109 43009.1171  9.28%     -    0s
     0     0 42906.9337    0  365 39358.5851 42906.9337  9.02%     -    0s
     0     0 42860.5411    0  369 39358.5851 42860.5411  8.90%     -    0s
     0     0 42770.2223    0  373 39358.5851 42770.2223  8.67%     -    0s
     0     0 42770.2223    0  373 39358.5851 42770.2223  8.67%     -    0s
     0     2 42770.2223    0  373 39358.5851 42770.2223  8.67%     -    0s
H   29    40                    39359.819275 42741.5753  8.59%   260    0s
H   30    40                    39649.144811 42741.5753  7.80%   256    0s
H   68    80                    39739.913758 42741.5753  7.55%   227    0s
H   80    99                    40074.201012 42741.5753  6.66%   219    0s
H  100   120                    40373.969636 42741.5753  5.86%   203    0s
H  119   143                    40456.056069 42741.5753  5.65%   194    0s
H  136   143                    40478.206246 42741.5753  5.59%   184    0s
H  143   159                    40538.074366 42741.5753  5.44%   180    0s
H  198   180                    40673.720189 42741.5753  5.08%   154    0s
H 1187   614                    40725.060420 42439.4535  4.21%   125    1s
H 2257  1037                    40760.039846 42002.3015  3.05%   119    1s
H 2539  1057                    40913.911081 41976.2868  2.60%   118    1s
  5641  1819 41120.9605   35  293 40913.9111 41800.3098  2.17%   119    5s
 25526  1457     cutoff   24      40913.9111 41213.4896  0.73%  96.1   10s

Cutting planes:
  Gomory: 2
  Clique: 14
  Zero half: 2
  RLT: 1

Explored 29310 nodes (2713988 simplex iterations) in 10.70 seconds (21.98 work units)
Thread count was 24 (of 24 available processors)

Solution count 10: 40913.9 40760 40725.1 ... 39739.9

Optimal solution found (tolerance 1.00e-04)
Best objective 4.091391108102e+04, best bound 4.091391108102e+04, gap 0.0000%

User-callback calls 60816, time in user-callback 0.04 sec

Gurobi 11.0.3 (linux64) logging started Wed Mar  4 15:49:07 2026

Set parameter LogFile to value "./log/train/CA_650_1000_0.7/CA_7.lp.log"
Set parameter TimeLimit to value 3600
Gurobi Optimizer version 11.0.3 build v11.0.3rc0 (linux64 - "Ubuntu 22.04.5 LTS")

CPU model: AMD Ryzen 9 9900X 12-Core Processor, instruction set [SSE2|AVX|AVX2|AVX512]
Thread count: 12 physical cores, 24 logical processors, using up to 2 threads

Optimize a model with 1041 rows, 650 columns and 3255 nonzeros
Model fingerprint: 0xeeab6f19
Variable types: 0 continuous, 650 integer (650 binary)
Coefficient statistics:
  Matrix range     [1e+00, 1e+00]
  Objective range  [1e+01, 1e+03]
  Bounds range     [1e+00, 1e+00]
  RHS range        [1e+00, 1e+00]
Found heuristic solution: objective 29809.363924
Presolve removed 269 rows and 78 columns
Presolve time: 0.01s
Presolved: 772 rows, 572 columns, 2915 nonzeros
Found heuristic solution: objective 34811.400478
Variable types: 0 continuous, 572 integer (572 binary)
Found heuristic solution: objective 36225.747830

Root relaxation: objective 4.300912e+04, 1462 iterations, 0.04 seconds (0.08 work units)

    Nodes    |    Current Node    |     Objective Bounds      |     Work
 Expl Unexpl |  Obj  Depth IntInf | Incumbent    BestBd   Gap | It/Node Time

     0     0 43009.1171    0  355 36225.7478 43009.1171  18.7%     -    0s
H    0     0                    38641.603647 43009.1171  11.3%     -    0s
H    0     0                    38750.277218 43009.1171  11.0%     -    0s
     0     0 42934.1270    0  365 38750.2772 42934.1270  10.8%     -    0s
     0     0 42913.8488    0  369 38750.2772 42913.8488  10.7%     -    0s
H    0     0                    38751.511385 42913.8488  10.7%     -    0s
     0     0 42898.3973    0  378 38751.5114 42898.3973  10.7%     -    0s
     0     0 42898.0387    0  379 38751.5114 42898.0387  10.7%     -    0s
     0     0 42897.9858    0  380 38751.5114 42897.9858  10.7%     -    0s
     0     0 42895.1403    0  377 38751.5114 42895.1403  10.7%     -    0s
     0     0 42895.1295    0  379 38751.5114 42895.1295  10.7%     -    0s
     0     0 42894.9313    0  378 38751.5114 42894.9313  10.7%     -    0s
     0     0 42894.9313    0  378 38751.5114 42894.9313  10.7%     -    0s
H    0     0                    38949.196917 42894.9313  10.1%     -    0s
     0     2 42894.9313    0  378 38949.1969 42894.9313  10.1%     -    0s
H   38    40                    40673.720189 42873.7663  5.41%   158    0s
H  512   235                    40913.911081 42436.1096  3.72%   119    2s
  1281   526 41803.0653   11  378 40913.9111 42117.8253  2.94%   117    5s
  1954   804 41631.4601   26  294 40913.9111 42117.8253  2.94%   135   10s
  3491  1174     cutoff   28      40913.9111 42084.3527  2.86%   124   15s
  5450  1913     cutoff   25      40913.9111 41892.8113  2.39%   118   20s
  7600  2463 40950.9369   30  286 40913.9111 41746.1275  2.03%   113   25s
  9816  2930     cutoff   29      40913.9111 41660.1345  1.82%   110   30s
 12598  3360 41212.2174   26  255 40913.9111 41582.9716  1.64%   106   35s
 14644  3598     cutoff   30      40913.9111 41540.2750  1.53%   104   51s
 16906  3641 41143.7137   23  261 40913.9111 41489.9041  1.41%   102   55s
 20018  3584 41000.5939   29  283 40913.9111 41415.9103  1.23%   101   60s
 22978  3220     cutoff   24      40913.9111 41348.9603  1.06%   100   65s
 25724  2575 40927.0998   31  318 40913.9111 41276.4229  0.89%   100   70s
 28431  1539     cutoff   28      40913.9111 41187.1608  0.67%   100   75s

Cutting planes:
  Clique: 9
  Flow cover: 9
  Zero half: 1

Explored 30874 nodes (3012863 simplex iterations) in 78.22 seconds (178.78 work units)
Thread count was 2 (of 24 available processors)

Solution count 9: 40913.9 40673.7 38949.2 ... 29809.4

Optimal solution found (tolerance 1.00e-04)
Best objective 4.091391108102e+04, best bound 4.091391108102e+04, gap 0.0000%

User-callback calls 68755, time in user-callback 0.07 sec

Gurobi 11.0.3 (linux64) logging started Wed Mar  4 16:14:22 2026

Set parameter LogFile to value "./log/train/CA_650_1000_0.7/CA_7.lp.log"
Set parameter TimeLimit to value 3600
Gurobi Optimizer version 11.0.3 build v11.0.3rc0 (linux64 - "Ubuntu 22.04.5 LTS")

CPU model: AMD Ryzen 9 9900X 12-Core Processor, instruction set [SSE2|AVX|AVX2|AVX512]
Thread count: 12 physical cores, 24 logical processors, using up to 2 threads

Optimize a model with 1041 rows, 650 columns and 3255 nonzeros
Model fingerprint: 0xeeab6f19
Variable types: 0 continuous, 650 integer (650 binary)
Coefficient statistics:
  Matrix range     [1e+00, 1e+00]
  Objective range  [1e+01, 1e+03]
  Bounds range     [1e+00, 1e+00]
  RHS range        [1e+00, 1e+00]
Found heuristic solution: objective 29809.363924
Presolve removed 269 rows and 78 columns
Presolve time: 0.01s
Presolved: 772 rows, 572 columns, 2915 nonzeros
Found heuristic solution: objective 34811.400478
Variable types: 0 continuous, 572 integer (572 binary)
Found heuristic solution: objective 36225.747830

Root relaxation: objective 4.300912e+04, 1462 iterations, 0.05 seconds (0.08 work units)

    Nodes    |    Current Node    |     Objective Bounds      |     Work
 Expl Unexpl |  Obj  Depth IntInf | Incumbent    BestBd   Gap | It/Node Time

     0     0 43009.1171    0  355 36225.7478 43009.1171  18.7%     -    0s
H    0     0                    38641.603647 43009.1171  11.3%     -    0s
H    0     0                    38750.277218 43009.1171  11.0%     -    0s
     0     0 42934.1270    0  365 38750.2772 42934.1270  10.8%     -    0s
     0     0 42913.8488    0  369 38750.2772 42913.8488  10.7%     -    0s
H    0     0                    38751.511385 42913.8488  10.7%     -    0s
     0     0 42898.3973    0  378 38751.5114 42898.3973  10.7%     -    0s
     0     0 42898.0387    0  379 38751.5114 42898.0387  10.7%     -    0s
     0     0 42897.9858    0  380 38751.5114 42897.9858  10.7%     -    0s
     0     0 42895.1403    0  377 38751.5114 42895.1403  10.7%     -    0s
     0     0 42895.1295    0  379 38751.5114 42895.1295  10.7%     -    0s
     0     0 42894.9313    0  378 38751.5114 42894.9313  10.7%     -    0s
     0     0 42894.9313    0  378 38751.5114 42894.9313  10.7%     -    0s
H    0     0                    38949.196917 42894.9313  10.1%     -    0s
     0     2 42894.9313    0  378 38949.1969 42894.9313  10.1%     -    0s
H   38    40                    40673.720189 42873.7663  5.41%   158    0s
H  512   235                    40913.911081 42436.1096  3.72%   119    1s
  1292   536 42117.8253   13  356 40913.9111 42117.8253  2.94%   118    5s
  2180   847     cutoff   27      40913.9111 42117.8253  2.94%   133   10s
  3980  1368 41496.7976   21  301 40913.9111 42030.2650  2.73%   123   15s
  5876  2024 41218.6027   21  279 40913.9111 41854.0744  2.30%   117   20s
  8179  2617 41261.7782   24  270 40913.9111 41719.7274  1.97%   112   25s
 10511  3023 41030.7953   30  280 40913.9111 41641.4589  1.78%   109   30s
 13070  3417 40947.7520   32  298 40913.9111 41571.7427  1.61%   105   35s
 14644  3598     cutoff   30      40913.9111 41540.2750  1.53%   104   50s
 17545  3635 40989.4744   22  275 40913.9111 41471.6921  1.36%   102   55s
 21368  3440 41077.4083   29  294 40913.9111 41385.7574  1.15%   100   60s
 25008  2764 41003.8644   32  283 40913.9111 41294.4573  0.93%   100   65s
 28665  1407     cutoff   23      40913.9111 41175.5723  0.64%   100   70s

Cutting planes:
  Clique: 9
  Flow cover: 9
  Zero half: 1

Explored 30874 nodes (3012863 simplex iterations) in 72.17 seconds (178.78 work units)
Thread count was 2 (of 24 available processors)

Solution count 9: 40913.9 40673.7 38949.2 ... 29809.4

Optimal solution found (tolerance 1.00e-04)
Best objective 4.091391108102e+04, best bound 4.091391108102e+04, gap 0.0000%

User-callback calls 68787, time in user-callback 0.06 sec
